; benchmark generated from python API
(set-info :status unknown)
(declare-fun S_4 () Real)
(declare-fun L_0 () Real)
(declare-fun A_0 () Real)
(declare-fun A_1 () Real)
(declare-fun A_3 () Real)
(declare-fun A_4 () Real)
(declare-fun A_2 () Real)
(declare-fun S_3 () Real)
(declare-fun S_2 () Real)
(declare-fun S_1 () Real)
(declare-fun S_0 () Real)
(declare-fun B () Real)
(declare-fun a () Real)
(assert
 (exists ((I_0 Real) (I_1 Real) (I_2 Real) (I_3 Real) (I_4 Real) (L_1 Real) (L_2 Real) (L_3 Real) (L_4 Real) (C Real) )(let ((?x35 (- A_0 L_0)))
 (let (($x124 (<= ?x35 S_4)))
 (let (($x122 (>= A_4 A_3)))
 (let (($x121 (>= A_3 A_2)))
 (let (($x120 (>= A_2 A_1)))
 (let (($x119 (>= A_1 A_0)))
 (let (($x117 (>= S_4 S_3)))
 (let (($x114 (>= S_3 S_2)))
 (let (($x111 (>= S_2 S_1)))
 (let (($x108 (>= S_1 S_0)))
 (let ((?x150 (- A_4 L_4)))
 (let ((?x147 (* C 1.0)))
 (let ((?x151 (+ I_3 ?x147)))
 (let (($x159 (= I_3 (ite (< (+ I_2 ?x147) (- A_3 L_3)) (+ I_2 ?x147) (- A_3 L_3)))))
 (let (($x164 (= I_2 (ite (< (+ I_1 ?x147) (- A_2 L_2)) (+ I_1 ?x147) (- A_2 L_2)))))
 (let (($x168 (= I_1 (ite (< (+ I_0 ?x147) (- A_1 L_1)) (+ I_0 ?x147) (- A_1 L_1)))))
 (let (($x169 (= L_4 L_3)))
 (let (($x174 (=> (not (> (- (- A_4 L_3) I_4) B)) $x169)))
 (let (($x172 (> (- (- A_4 L_3) I_4) B)))
 (let (($x178 (=> $x172 (= L_4 (- (- A_4 I_4) B)))))
 (let (($x179 (= L_3 L_2)))
 (let (($x184 (=> (not (> (- (- A_3 L_2) I_3) B)) $x179)))
 (let (($x182 (> (- (- A_3 L_2) I_3) B)))
 (let (($x188 (=> $x182 (= L_3 (- (- A_3 I_3) B)))))
 (let (($x189 (= L_2 L_1)))
 (let (($x194 (=> (not (> (- (- A_2 L_1) I_2) B)) $x189)))
 (let (($x192 (> (- (- A_2 L_1) I_2) B)))
 (let (($x198 (=> $x192 (= L_2 (- (- A_2 I_2) B)))))
 (let (($x199 (= L_1 L_0)))
 (let (($x203 (=> (not (> (- (- A_1 L_0) I_1) B)) $x199)))
 (let (($x201 (> (- (- A_1 L_0) I_1) B)))
 (let (($x207 (=> $x201 (= L_1 (- (- A_1 I_1) B)))))
 (let (($x42 (= a 1.0)))
 (let ((?x38 (* 5.0 a)))
 (let (($x40 (>= B ?x38)))
 (let (($x34 (>= L_0 0.0)))
 (and $x34 (<= I_0 ?x35) (>= C ?x38) $x40 $x42 $x207 $x203 $x198 $x194 $x188 $x184 $x178 $x174 $x207 $x203 $x198 $x194 $x188 $x184 $x178 $x174 $x168 $x164 $x159 (= I_4 (ite (< ?x151 ?x150) ?x151 ?x150)) (>= S_0 (- I_0 ?x147)) (<= S_0 I_0) (>= S_1 I_0) $x108 (<= S_1 I_1) (>= S_2 I_1) $x111 (<= S_2 I_2) (>= S_3 I_2) $x114 (<= S_3 I_3) (>= S_4 I_3) $x117 (<= S_4 I_4) $x119 $x120 $x121 $x122 (> (- A_1 L_1) S_4) $x124))))))))))))))))))))))))))))))))))))))
 )
(check-sat)
